% Data example Kakuro
% Example 1

whites = 14;
size = 10;
large = 5;

pro = [|1, 2, 3, 0, 0|
        4, 5, 6, 0, 0|
        7, 8, 0, 0, 0|
        9, 10, 11, 0, 0|
        12, 13, 14, 0, 0|
        1, 4, 7, 0, 0|
        2, 5, 8, 9, 12|
        3, 6, 0, 0, 0|
        10, 13, 0, 0, 0|
        11, 14, 0, 0, 0|];
        
res = [9, 13, 13, 7, 19, 9, 34, 4, 11, 3];

% Example 2

% whites = 24;
% size = 20;
% large = 3;

% pro = [|1,2,0|
%         3,4,5|
%         6,7,8|
%         9,10,0|
%         11,12,0|
%         13,14,0|
%         15,16,0|
%         17,18,19|
%         20,21,22|
%         23,24,0|
%         6,11,0|
%         7,12,15|
%         1,3,8|
%         16,20,0|
%         2,4,0|
%         21,23,0|
%         5,9,0|
%         17,22,24|
%         10,13,18|
%         14,19,0|];
        
% res = [9,24,7,12,12,10,14,9,22,11, 7,20,10,14,15,17,13,8,23,3];